;; translated from ./bv/seq-proc.c.vmt
;; original benchmark available at: https://es-static.fbk.eu/people/griggio/ic3ia/index.html
;; author: Alberto Griggio <griggio@fbk.eu>
(set-logic HORN)
(declare-fun state (Bool Bool Bool (_ BitVec 32) (_ BitVec 32) (_ BitVec 32) (_ BitVec 32) (_ BitVec 32) (_ BitVec 32) (_ BitVec 32) (_ BitVec 32)) Bool)
(assert (forall ((|.PC.0| Bool) (|j0__14$main| (_ BitVec 32)) (|j0__14$main.next| (_ BitVec 32)) (|n0__2$main| (_ BitVec 32)) (|k__8$main| (_ BitVec 32)) (|k__8$main.next| (_ BitVec 32)) (|n0__2$main.next| (_ BitVec 32)) (|i0__6$main| (_ BitVec 32)) (|i0__6$main.next| (_ BitVec 32)) (|__RET__$main.next| (_ BitVec 32)) (|__RET__$main| (_ BitVec 32)) (|n1__4$main| (_ BitVec 32)) (|n1__4$main.next| (_ BitVec 32)) (|j1__12$main.next| (_ BitVec 32)) (|j1__12$main| (_ BitVec 32)) (|i1__10$main.next| (_ BitVec 32)) (|i1__10$main| (_ BitVec 32)) (|.PC.0.next| Bool) (|.PC.1.next| Bool) (|.PC.2.next| Bool) (|__NONDET_INLINE_INIT__5__10$main#1| (_ BitVec 32)) (|__NONDET_INLINE_INIT__3__9$main#0| (_ BitVec 32)) (|.PC.2| Bool) (|.PC.1| Bool)) (=> (let ((.def_15 (not .PC.2)))
(let ((.def_12 (not .PC.1)))
(let ((.def_10 (not .PC.0)))
(let ((.def_13 (and .def_10 .def_12)))
(let ((.def_16 (and .def_13 .def_15)))
.def_16))))) (state |.PC.0| |.PC.1| |.PC.2| |j0__14$main| |__RET__$main| |j1__12$main| |i1__10$main| |n0__2$main| |i0__6$main| |n1__4$main| |k__8$main|))))
(assert (forall ((|.PC.0| Bool) (|j0__14$main| (_ BitVec 32)) (|j0__14$main.next| (_ BitVec 32)) (|n0__2$main| (_ BitVec 32)) (|k__8$main| (_ BitVec 32)) (|k__8$main.next| (_ BitVec 32)) (|n0__2$main.next| (_ BitVec 32)) (|i0__6$main| (_ BitVec 32)) (|i0__6$main.next| (_ BitVec 32)) (|__RET__$main.next| (_ BitVec 32)) (|__RET__$main| (_ BitVec 32)) (|n1__4$main| (_ BitVec 32)) (|n1__4$main.next| (_ BitVec 32)) (|j1__12$main.next| (_ BitVec 32)) (|j1__12$main| (_ BitVec 32)) (|i1__10$main.next| (_ BitVec 32)) (|i1__10$main| (_ BitVec 32)) (|.PC.0.next| Bool) (|.PC.1.next| Bool) (|.PC.2.next| Bool) (|__NONDET_INLINE_INIT__5__10$main#1| (_ BitVec 32)) (|__NONDET_INLINE_INIT__3__9$main#0| (_ BitVec 32)) (|.PC.2| Bool) (|.PC.1| Bool)) (=> (and (state |.PC.0| |.PC.1| |.PC.2| |j0__14$main| |__RET__$main| |j1__12$main| |i1__10$main| |n0__2$main| |i0__6$main| |n1__4$main| |k__8$main|) (let ((.def_168 (bvadd (_ bv1 32) j0__14$main)))
(let ((.def_169 (= j0__14$main.next .def_168)))
(let ((.def_167 (bvslt j0__14$main n0__2$main)))
(let ((.def_170 (and .def_167 .def_169)))
(let ((.def_154 (bvadd (_ bv4294967295 32) k__8$main)))
(let ((.def_155 (= k__8$main.next .def_154)))
(let ((.def_171 (and .def_155 .def_170)))
(let ((.def_62 (= n0__2$main.next n0__2$main)))
(let ((.def_172 (and .def_62 .def_171)))
(let ((.def_64 (= i0__6$main.next i0__6$main)))
(let ((.def_173 (and .def_64 .def_172)))
(let ((.def_37 (= __RET__$main __RET__$main.next)))
(let ((.def_174 (and .def_37 .def_173)))
(let ((.def_69 (= n1__4$main.next n1__4$main)))
(let ((.def_175 (and .def_69 .def_174)))
(let ((.def_41 (= j1__12$main j1__12$main.next)))
(let ((.def_176 (and .def_41 .def_175)))
(let ((.def_45 (= i1__10$main i1__10$main.next)))
(let ((.def_177 (and .def_45 .def_176)))
(let ((.def_75 (not .PC.0.next)))
(let ((.def_48 (not .PC.1.next)))
(let ((.def_144 (and .def_48 .def_75)))
(let ((.def_145 (and .PC.2.next .def_144)))
(let ((.def_178 (and .def_145 .def_177)))
(let ((.def_12 (not .PC.1)))
(let ((.def_10 (not .PC.0)))
(let ((.def_13 (and .def_10 .def_12)))
(let ((.def_166 (and .def_13 .PC.2)))
(let ((.def_179 (and .def_166 .def_178)))
(let ((.def_151 (bvadd (_ bv1 32) j1__12$main)))
(let ((.def_152 (= j1__12$main.next .def_151)))
(let ((.def_133 (bvslt j1__12$main n1__4$main)))
(let ((.def_153 (and .def_133 .def_152)))
(let ((.def_156 (and .def_153 .def_155)))
(let ((.def_157 (and .def_62 .def_156)))
(let ((.def_158 (and .def_64 .def_157)))
(let ((.def_33 (= j0__14$main j0__14$main.next)))
(let ((.def_159 (and .def_33 .def_158)))
(let ((.def_160 (and .def_37 .def_159)))
(let ((.def_161 (and .def_69 .def_160)))
(let ((.def_162 (and .def_45 .def_161)))
(let ((.def_110 (and .PC.1.next .PC.0.next)))
(let ((.def_52 (not .PC.2.next)))
(let ((.def_111 (and .def_52 .def_110)))
(let ((.def_163 (and .def_111 .def_162)))
(let ((.def_147 (and .PC.0 .PC.1)))
(let ((.def_15 (not .PC.2)))
(let ((.def_148 (and .def_15 .def_147)))
(let ((.def_164 (and .def_148 .def_163)))
(let ((.def_135 (= j0__14$main.next (_ bv0 32))))
(let ((.def_134 (not .def_133)))
(let ((.def_136 (and .def_134 .def_135)))
(let ((.def_137 (and .def_62 .def_136)))
(let ((.def_138 (and .def_64 .def_137)))
(let ((.def_139 (and .def_37 .def_138)))
(let ((.def_140 (and .def_69 .def_139)))
(let ((.def_141 (and .def_41 .def_140)))
(let ((.def_142 (and .def_45 .def_141)))
(let ((.def_73 (= k__8$main.next k__8$main)))
(let ((.def_143 (and .def_73 .def_142)))
(let ((.def_146 (and .def_143 .def_145)))
(let ((.def_149 (and .def_146 .def_148)))
(let ((.def_121 (bvadd (_ bv1 32) i1__10$main)))
(let ((.def_122 (= i1__10$main.next .def_121)))
(let ((.def_118 (bvadd (_ bv4294967295 32) i0__6$main)))
(let ((.def_119 (= i0__6$main.next .def_118)))
(let ((.def_99 (bvslt i1__10$main n1__4$main)))
(let ((.def_120 (and .def_99 .def_119)))
(let ((.def_123 (and .def_120 .def_122)))
(let ((.def_87 (bvadd (_ bv1 32) k__8$main)))
(let ((.def_88 (= k__8$main.next .def_87)))
(let ((.def_124 (and .def_88 .def_123)))
(let ((.def_125 (and .def_62 .def_124)))
(let ((.def_126 (and .def_33 .def_125)))
(let ((.def_127 (and .def_37 .def_126)))
(let ((.def_128 (and .def_69 .def_127)))
(let ((.def_129 (and .def_41 .def_128)))
(let ((.def_76 (and .PC.1.next .def_75)))
(let ((.def_77 (and .def_52 .def_76)))
(let ((.def_130 (and .def_77 .def_129)))
(let ((.def_113 (and .def_10 .PC.1)))
(let ((.def_114 (and .def_15 .def_113)))
(let ((.def_131 (and .def_114 .def_130)))
(let ((.def_101 (= j1__12$main.next (_ bv0 32))))
(let ((.def_100 (not .def_99)))
(let ((.def_102 (and .def_100 .def_101)))
(let ((.def_103 (and .def_62 .def_102)))
(let ((.def_104 (and .def_64 .def_103)))
(let ((.def_105 (and .def_33 .def_104)))
(let ((.def_106 (and .def_37 .def_105)))
(let ((.def_107 (and .def_69 .def_106)))
(let ((.def_108 (and .def_45 .def_107)))
(let ((.def_109 (and .def_73 .def_108)))
(let ((.def_112 (and .def_109 .def_111)))
(let ((.def_115 (and .def_112 .def_114)))
(let ((.def_84 (bvadd (_ bv1 32) i0__6$main)))
(let ((.def_85 (= i0__6$main.next .def_84)))
(let ((.def_58 (bvslt i0__6$main n0__2$main)))
(let ((.def_86 (and .def_58 .def_85)))
(let ((.def_89 (and .def_86 .def_88)))
(let ((.def_90 (and .def_62 .def_89)))
(let ((.def_91 (and .def_33 .def_90)))
(let ((.def_92 (and .def_37 .def_91)))
(let ((.def_93 (and .def_69 .def_92)))
(let ((.def_94 (and .def_41 .def_93)))
(let ((.def_95 (and .def_45 .def_94)))
(let ((.def_50 (and .def_48 .PC.0.next)))
(let ((.def_53 (and .def_50 .def_52)))
(let ((.def_96 (and .def_53 .def_95)))
(let ((.def_79 (and .PC.0 .def_12)))
(let ((.def_80 (and .def_15 .def_79)))
(let ((.def_97 (and .def_80 .def_96)))
(let ((.def_60 (= i1__10$main.next (_ bv0 32))))
(let ((.def_59 (not .def_58)))
(let ((.def_61 (and .def_59 .def_60)))
(let ((.def_63 (and .def_61 .def_62)))
(let ((.def_65 (and .def_63 .def_64)))
(let ((.def_66 (and .def_33 .def_65)))
(let ((.def_67 (and .def_37 .def_66)))
(let ((.def_70 (and .def_67 .def_69)))
(let ((.def_71 (and .def_41 .def_70)))
(let ((.def_74 (and .def_71 .def_73)))
(let ((.def_78 (and .def_74 .def_77)))
(let ((.def_81 (and .def_78 .def_80)))
(let ((.def_29 (= k__8$main.next (_ bv0 32))))
(let ((.def_26 (= i0__6$main.next (_ bv0 32))))
(let ((.def_22 (= n1__4$main.next |__NONDET_INLINE_INIT__5__10$main#1|)))
(let ((.def_19 (= n0__2$main.next |__NONDET_INLINE_INIT__3__9$main#0|)))
(let ((.def_23 (and .def_19 .def_22)))
(let ((.def_27 (and .def_23 .def_26)))
(let ((.def_30 (and .def_27 .def_29)))
(let ((.def_34 (and .def_30 .def_33)))
(let ((.def_38 (and .def_34 .def_37)))
(let ((.def_42 (and .def_38 .def_41)))
(let ((.def_46 (and .def_42 .def_45)))
(let ((.def_54 (and .def_46 .def_53)))
(let ((.def_16 (and .def_13 .def_15)))
(let ((.def_55 (and .def_16 .def_54)))
(let ((.def_82 (or .def_55 .def_81)))
(let ((.def_98 (or .def_82 .def_97)))
(let ((.def_116 (or .def_98 .def_115)))
(let ((.def_132 (or .def_116 .def_131)))
(let ((.def_150 (or .def_132 .def_149)))
(let ((.def_165 (or .def_150 .def_164)))
(let ((.def_180 (or .def_165 .def_179)))
.def_180)))))))))))))))))))))))))))))))))))))))))))))))))))))))))))))))))))))))))))))))))))))))))))))))))))))))))))))))))))))))))))))))))))))))))))))))))) (state |.PC.0.next| |.PC.1.next| |.PC.2.next| |j0__14$main.next| |__RET__$main.next| |j1__12$main.next| |i1__10$main.next| |n0__2$main.next| |i0__6$main.next| |n1__4$main.next| |k__8$main.next|))))
(assert (forall ((|.PC.0| Bool) (|j0__14$main| (_ BitVec 32)) (|j0__14$main.next| (_ BitVec 32)) (|n0__2$main| (_ BitVec 32)) (|k__8$main| (_ BitVec 32)) (|k__8$main.next| (_ BitVec 32)) (|n0__2$main.next| (_ BitVec 32)) (|i0__6$main| (_ BitVec 32)) (|i0__6$main.next| (_ BitVec 32)) (|__RET__$main.next| (_ BitVec 32)) (|__RET__$main| (_ BitVec 32)) (|n1__4$main| (_ BitVec 32)) (|n1__4$main.next| (_ BitVec 32)) (|j1__12$main.next| (_ BitVec 32)) (|j1__12$main| (_ BitVec 32)) (|i1__10$main.next| (_ BitVec 32)) (|i1__10$main| (_ BitVec 32)) (|.PC.0.next| Bool) (|.PC.1.next| Bool) (|.PC.2.next| Bool) (|__NONDET_INLINE_INIT__5__10$main#1| (_ BitVec 32)) (|__NONDET_INLINE_INIT__3__9$main#0| (_ BitVec 32)) (|.PC.2| Bool) (|.PC.1| Bool)) (=> (state |.PC.0| |.PC.1| |.PC.2| |j0__14$main| |__RET__$main| |j1__12$main| |i1__10$main| |n0__2$main| |i0__6$main| |n1__4$main| |k__8$main|) (let ((.def_10 (not .PC.0)))
(let ((.def_113 (and .def_10 .PC.1)))
(let ((.def_181 (and .PC.2 .def_113)))
(let ((.def_182 (not .def_181)))
.def_182)))))))
(check-sat)
